p edge 2907 2852
e 1 2
e 1 3
e 1 4
e 1 5
e 1 6
e 1 7
e 1 8
e 1 9
e 1 10
e 1 11
e 1 12
e 1 13
e 1 14
e 1 15
e 1 16
e 1 17
e 1 18
e 1 19
e 1 20
e 1 21
e 1 22
e 1 23
e 1 24
e 1 25
e 1 26
e 1 27
e 1 28
e 1 29
e 1 30
e 1 31
e 1 32
e 1 33
e 1 34
e 1 35
e 1 36
e 1 37
e 1 38
e 1 39
e 1 40
e 1 41
e 1 42
e 1 43
e 1 44
e 1 45
e 1 46
e 1 47
e 1 48
e 1 49
e 1 50
e 1 51
e 1 52
e 1 53
e 1 54
e 1 55
e 1 56
e 57 58
e 57 59
e 57 60
e 57 61
e 57 62
e 57 63
e 57 64
e 57 65
e 57 66
e 57 67
e 57 68
e 57 69
e 57 70
e 57 71
e 57 72
e 57 73
e 57 74
e 57 75
e 57 76
e 57 77
e 57 78
e 57 79
e 57 80
e 57 81
e 57 82
e 57 83
e 57 84
e 57 85
e 57 86
e 57 87
e 57 88
e 57 89
e 57 90
e 57 91
e 57 92
e 57 93
e 57 94
e 57 95
e 57 96
e 57 97
e 57 98
e 57 99
e 57 100
e 57 101
e 57 102
e 57 103
e 104 105
e 104 106
e 104 107
e 104 108
e 104 109
e 104 110
e 104 111
e 104 112
e 104 113
e 104 114
e 104 115
e 104 116
e 104 117
e 104 118
e 104 119
e 104 120
e 104 121
e 104 122
e 104 123
e 104 124
e 104 125
e 104 126
e 104 127
e 104 128
e 104 129
e 104 130
e 104 131
e 104 132
e 104 133
e 104 134
e 104 135
e 104 136
e 104 137
e 104 138
e 104 139
e 104 140
e 104 141
e 104 142
e 104 143
e 104 144
e 104 145
e 104 146
e 104 147
e 104 148
e 104 149
e 104 150
e 104 151
e 104 152
e 104 153
e 104 154
e 104 155
e 104 156
e 104 157
e 104 158
e 104 159
e 104 160
e 104 161
e 104 162
e 104 163
e 104 164
e 104 165
e 166 167
e 166 168
e 166 169
e 166 170
e 166 171
e 166 172
e 166 173
e 166 174
e 166 175
e 166 176
e 166 177
e 166 178
e 166 179
e 166 180
e 166 181
e 166 182
e 166 183
e 166 184
e 166 185
e 166 186
e 166 187
e 166 188
e 166 189
e 166 190
e 166 191
e 166 192
e 166 193
e 166 194
e 166 195
e 166 196
e 166 197
e 166 198
e 166 199
e 166 200
e 166 201
e 166 202
e 166 203
e 166 204
e 166 205
e 166 206
e 166 207
e 166 208
e 166 209
e 166 210
e 166 211
e 166 212
e 166 213
e 166 214
e 166 215
e 166 216
e 166 217
e 166 218
e 166 219
e 166 220
e 166 221
e 166 222
e 166 223
e 166 224
e 166 225
e 166 226
e 166 227
e 166 228
e 166 229
e 166 230
e 166 231
e 166 232
e 233 234
e 233 235
e 233 236
e 233 237
e 233 238
e 233 239
e 233 240
e 233 241
e 233 242
e 233 243
e 233 244
e 233 245
e 233 246
e 233 247
e 233 248
e 233 249
e 233 250
e 233 251
e 233 252
e 233 253
e 233 254
e 233 255
e 233 256
e 233 257
e 233 258
e 233 259
e 233 260
e 233 261
e 233 262
e 233 263
e 233 264
e 233 265
e 233 266
e 233 267
e 233 268
e 233 269
e 233 270
e 233 271
e 233 272
e 233 273
e 233 274
e 233 275
e 233 276
e 233 277
e 233 278
e 233 279
e 233 280
e 233 281
e 233 282
e 233 283
e 233 284
e 233 285
e 233 286
e 233 287
e 233 288
e 233 289
e 233 290
e 233 291
e 233 292
e 233 293
e 233 294
e 233 295
e 233 296
e 233 297
e 233 298
e 233 299
e 233 300
e 233 301
e 233 302
e 233 303
e 233 304
e 233 305
e 233 306
e 233 307
e 233 308
e 309 310
e 309 311
e 309 312
e 309 313
e 309 314
e 309 315
e 309 316
e 309 317
e 309 318
e 309 319
e 309 320
e 309 321
e 309 322
e 309 323
e 309 324
e 309 325
e 309 326
e 309 327
e 309 328
e 309 329
e 309 330
e 309 331
e 309 332
e 309 333
e 309 334
e 309 335
e 309 336
e 309 337
e 309 338
e 309 339
e 309 340
e 309 341
e 309 342
e 309 343
e 309 344
e 309 345
e 309 346
e 309 347
e 348 349
e 348 350
e 348 351
e 348 352
e 348 353
e 348 354
e 348 355
e 348 356
e 348 357
e 348 358
e 348 359
e 348 360
e 348 361
e 348 362
e 348 363
e 348 364
e 348 365
e 348 366
e 348 367
e 348 368
e 348 369
e 348 370
e 348 371
e 348 372
e 348 373
e 348 374
e 348 375
e 348 376
e 348 377
e 348 378
e 348 379
e 348 380
e 348 381
e 348 382
e 348 383
e 348 384
e 348 385
e 348 386
e 348 387
e 348 388
e 348 389
e 348 390
e 348 391
e 348 392
e 348 393
e 348 394
e 348 395
e 348 396
e 348 397
e 348 398
e 348 399
e 348 400
e 348 401
e 348 402
e 348 403
e 348 404
e 348 405
e 348 406
e 348 407
e 348 408
e 348 409
e 348 410
e 348 411
e 348 412
e 348 413
e 348 414
e 348 415
e 348 416
e 348 417
e 348 418
e 348 419
e 348 420
e 348 421
e 348 422
e 348 423
e 348 424
e 348 425
e 348 426
e 348 427
e 348 428
e 348 429
e 348 430
e 348 431
e 348 432
e 348 433
e 434 435
e 434 436
e 434 437
e 434 438
e 434 439
e 434 440
e 434 441
e 434 442
e 434 443
e 434 444
e 434 445
e 434 446
e 434 447
e 434 448
e 434 449
e 434 450
e 434 451
e 434 452
e 434 453
e 434 454
e 434 455
e 434 456
e 434 457
e 434 458
e 434 459
e 434 460
e 434 461
e 434 462
e 434 463
e 434 464
e 434 465
e 434 466
e 434 467
e 434 468
e 434 469
e 434 470
e 434 471
e 434 472
e 434 473
e 434 474
e 434 475
e 434 476
e 434 477
e 434 478
e 434 479
e 434 480
e 434 481
e 434 482
e 434 483
e 434 484
e 434 485
e 434 486
e 434 487
e 434 488
e 434 489
e 434 490
e 434 491
e 434 492
e 434 493
e 434 494
e 434 495
e 434 496
e 434 497
e 434 498
e 434 499
e 434 500
e 434 501
e 434 502
e 434 503
e 434 504
e 434 505
e 434 506
e 434 507
e 434 508
e 434 509
e 434 510
e 511 512
e 511 513
e 511 514
e 511 515
e 511 516
e 511 517
e 511 518
e 511 519
e 511 520
e 511 521
e 511 522
e 511 523
e 511 524
e 511 525
e 511 526
e 511 527
e 511 528
e 511 529
e 511 530
e 511 531
e 511 532
e 511 533
e 511 534
e 511 535
e 511 536
e 511 537
e 511 538
e 511 539
e 511 540
e 511 541
e 511 542
e 511 543
e 511 544
e 511 545
e 511 546
e 511 547
e 511 548
e 511 549
e 511 550
e 511 551
e 511 552
e 511 553
e 511 554
e 511 555
e 511 556
e 511 557
e 511 558
e 511 559
e 511 560
e 511 561
e 511 562
e 511 563
e 511 564
e 511 565
e 511 566
e 511 567
e 511 568
e 511 569
e 511 570
e 511 571
e 511 572
e 511 573
e 511 574
e 511 575
e 511 576
e 511 577
e 511 578
e 511 579
e 511 580
e 511 581
e 511 582
e 511 583
e 511 584
e 511 585
e 511 586
e 511 587
e 511 588
e 511 589
e 511 590
e 511 591
e 511 592
e 511 593
e 511 594
e 511 595
e 511 596
e 511 597
e 511 598
e 511 599
e 511 600
e 511 601
e 602 603
e 602 604
e 602 605
e 602 606
e 602 607
e 602 608
e 602 609
e 602 610
e 602 611
e 602 612
e 602 613
e 602 614
e 602 615
e 602 616
e 602 617
e 602 618
e 602 619
e 602 620
e 602 621
e 602 622
e 602 623
e 602 624
e 602 625
e 602 626
e 602 627
e 602 628
e 602 629
e 602 630
e 602 631
e 602 632
e 602 633
e 602 634
e 602 635
e 602 636
e 602 637
e 602 638
e 602 639
e 602 640
e 602 641
e 602 642
e 602 643
e 602 644
e 602 645
e 602 646
e 602 647
e 602 648
e 602 649
e 602 650
e 602 651
e 602 652
e 602 653
e 602 654
e 602 655
e 602 656
e 602 657
e 602 658
e 602 659
e 602 660
e 602 661
e 602 662
e 602 663
e 602 664
e 602 665
e 602 666
e 602 667
e 602 668
e 602 669
e 602 670
e 602 671
e 602 672
e 602 673
e 602 674
e 602 675
e 602 676
e 602 677
e 602 678
e 602 679
e 602 680
e 602 681
e 602 682
e 683 684
e 683 685
e 683 686
e 683 687
e 683 688
e 683 689
e 683 690
e 683 691
e 683 692
e 683 693
e 683 694
e 683 695
e 683 696
e 683 697
e 683 698
e 683 699
e 683 700
e 683 701
e 683 702
e 683 703
e 683 704
e 683 705
e 683 706
e 683 707
e 683 708
e 683 709
e 683 710
e 683 711
e 683 712
e 683 713
e 683 714
e 683 715
e 683 716
e 683 717
e 683 718
e 683 719
e 683 720
e 683 721
e 683 722
e 683 723
e 683 724
e 683 725
e 683 726
e 683 727
e 683 728
e 683 729
e 683 730
e 683 731
e 683 732
e 683 733
e 683 734
e 683 735
e 683 736
e 683 737
e 683 738
e 683 739
e 683 740
e 683 741
e 683 742
e 683 743
e 683 744
e 683 745
e 683 746
e 683 747
e 683 748
e 683 749
e 683 750
e 683 751
e 683 752
e 683 753
e 683 754
e 683 755
e 683 756
e 683 757
e 683 758
e 759 760
e 759 761
e 759 762
e 759 763
e 759 764
e 759 765
e 759 766
e 759 767
e 759 768
e 759 769
e 759 770
e 759 771
e 759 772
e 759 773
e 759 774
e 759 775
e 759 776
e 759 777
e 759 778
e 759 779
e 759 780
e 759 781
e 759 782
e 759 783
e 759 784
e 759 785
e 786 787
e 786 788
e 786 789
e 786 790
e 786 791
e 786 792
e 786 793
e 786 794
e 786 795
e 786 796
e 786 797
e 786 798
e 786 799
e 786 800
e 786 801
e 786 802
e 786 803
e 786 804
e 786 805
e 786 806
e 786 807
e 786 808
e 786 809
e 786 810
e 786 811
e 786 812
e 786 813
e 786 814
e 786 815
e 786 816
e 786 817
e 786 818
e 786 819
e 786 820
e 786 821
e 786 822
e 786 823
e 786 824
e 786 825
e 786 826
e 786 827
e 786 828
e 786 829
e 786 830
e 786 831
e 786 832
e 786 833
e 786 834
e 786 835
e 786 836
e 786 837
e 786 838
e 839 840
e 839 841
e 839 842
e 839 843
e 839 844
e 839 845
e 839 846
e 839 847
e 839 848
e 839 849
e 839 850
e 839 851
e 839 852
e 839 853
e 839 854
e 839 855
e 839 856
e 839 857
e 839 858
e 839 859
e 839 860
e 839 861
e 839 862
e 839 863
e 864 865
e 864 866
e 864 867
e 864 868
e 864 869
e 864 870
e 864 871
e 864 872
e 864 873
e 864 874
e 864 875
e 864 876
e 864 877
e 864 878
e 864 879
e 864 880
e 864 881
e 864 882
e 864 883
e 864 884
e 864 885
e 864 886
e 864 887
e 864 888
e 864 889
e 864 890
e 864 891
e 864 892
e 864 893
e 864 894
e 864 895
e 864 896
e 864 897
e 864 898
e 864 899
e 864 900
e 864 901
e 864 902
e 864 903
e 864 904
e 864 905
e 864 906
e 864 907
e 864 908
e 864 909
e 864 910
e 864 911
e 864 912
e 864 913
e 864 914
e 864 915
e 864 916
e 864 917
e 864 918
e 864 919
e 864 920
e 864 921
e 864 922
e 864 923
e 864 924
e 864 925
e 864 926
e 864 927
e 864 928
e 864 929
e 864 930
e 864 931
e 864 932
e 864 933
e 864 934
e 864 935
e 936 937
e 936 938
e 936 939
e 936 940
e 936 941
e 936 942
e 936 943
e 936 944
e 936 945
e 936 946
e 936 947
e 936 948
e 936 949
e 936 950
e 936 951
e 936 952
e 936 953
e 936 954
e 936 955
e 936 956
e 936 957
e 936 958
e 936 959
e 936 960
e 936 961
e 936 962
e 936 963
e 936 964
e 936 965
e 936 966
e 936 967
e 936 968
e 936 969
e 936 970
e 936 971
e 936 972
e 936 973
e 936 974
e 936 975
e 936 976
e 936 977
e 936 978
e 936 979
e 936 980
e 936 981
e 982 983
e 982 984
e 982 985
e 982 986
e 982 987
e 982 988
e 982 989
e 982 990
e 982 991
e 982 992
e 982 993
e 982 994
e 982 995
e 982 996
e 982 997
e 982 998
e 982 999
e 982 1000
e 982 1001
e 982 1002
e 982 1003
e 982 1004
e 982 1005
e 982 1006
e 982 1007
e 982 1008
e 982 1009
e 982 1010
e 982 1011
e 982 1012
e 982 1013
e 982 1014
e 982 1015
e 982 1016
e 982 1017
e 982 1018
e 982 1019
e 982 1020
e 982 1021
e 982 1022
e 982 1023
e 982 1024
e 982 1025
e 982 1026
e 982 1027
e 982 1028
e 982 1029
e 982 1030
e 982 1031
e 982 1032
e 982 1033
e 982 1034
e 982 1035
e 982 1036
e 982 1037
e 982 1038
e 982 1039
e 982 1040
e 982 1041
e 982 1042
e 982 1043
e 982 1044
e 982 1045
e 982 1046
e 982 1047
e 982 1048
e 982 1049
e 982 1050
e 982 1051
e 1052 1053
e 1052 1054
e 1052 1055
e 1052 1056
e 1052 1057
e 1052 1058
e 1052 1059
e 1052 1060
e 1052 1061
e 1052 1062
e 1052 1063
e 1052 1064
e 1052 1065
e 1052 1066
e 1052 1067
e 1052 1068
e 1052 1069
e 1052 1070
e 1052 1071
e 1052 1072
e 1052 1073
e 1052 1074
e 1052 1075
e 1052 1076
e 1052 1077
e 1052 1078
e 1052 1079
e 1052 1080
e 1052 1081
e 1052 1082
e 1052 1083
e 1052 1084
e 1052 1085
e 1052 1086
e 1052 1087
e 1052 1088
e 1052 1089
e 1052 1090
e 1052 1091
e 1052 1092
e 1052 1093
e 1052 1094
e 1052 1095
e 1052 1096
e 1052 1097
e 1052 1098
e 1052 1099
e 1052 1100
e 1052 1101
e 1052 1102
e 1052 1103
e 1052 1104
e 1052 1105
e 1052 1106
e 1052 1107
e 1052 1108
e 1052 1109
e 1052 1110
e 1052 1111
e 1052 1112
e 1052 1113
e 1052 1114
e 1052 1115
e 1052 1116
e 1052 1117
e 1052 1118
e 1052 1119
e 1052 1120
e 1052 1121
e 1052 1122
e 1052 1123
e 1052 1124
e 1052 1125
e 1052 1126
e 1052 1127
e 1052 1128
e 1052 1129
e 1052 1130
e 1052 1131
e 1052 1132
e 1052 1133
e 1052 1134
e 1052 1135
e 1052 1136
e 1052 1137
e 1138 1139
e 1138 1140
e 1138 1141
e 1138 1142
e 1138 1143
e 1138 1144
e 1138 1145
e 1138 1146
e 1138 1147
e 1138 1148
e 1138 1149
e 1138 1150
e 1138 1151
e 1138 1152
e 1138 1153
e 1138 1154
e 1138 1155
e 1138 1156
e 1138 1157
e 1138 1158
e 1138 1159
e 1138 1160
e 1138 1161
e 1138 1162
e 1138 1163
e 1138 1164
e 1138 1165
e 1138 1166
e 1138 1167
e 1138 1168
e 1138 1169
e 1138 1170
e 1138 1171
e 1138 1172
e 1138 1173
e 1138 1174
e 1138 1175
e 1138 1176
e 1138 1177
e 1178 1179
e 1178 1180
e 1178 1181
e 1178 1182
e 1178 1183
e 1178 1184
e 1178 1185
e 1178 1186
e 1178 1187
e 1178 1188
e 1178 1189
e 1178 1190
e 1178 1191
e 1178 1192
e 1178 1193
e 1178 1194
e 1178 1195
e 1178 1196
e 1178 1197
e 1178 1198
e 1178 1199
e 1178 1200
e 1178 1201
e 1178 1202
e 1178 1203
e 1178 1204
e 1178 1205
e 1178 1206
e 1178 1207
e 1178 1208
e 1178 1209
e 1178 1210
e 1178 1211
e 1178 1212
e 1178 1213
e 1178 1214
e 1178 1215
e 1178 1216
e 1178 1217
e 1178 1218
e 1178 1219
e 1178 1220
e 1178 1221
e 1178 1222
e 1178 1223
e 1178 1224
e 1178 1225
e 1178 1226
e 1178 1227
e 1178 1228
e 1178 1229
e 1178 1230
e 1178 1231
e 1178 1232
e 1178 1233
e 1178 1234
e 1178 1235
e 1178 1236
e 1178 1237
e 1178 1238
e 1178 1239
e 1178 1240
e 1178 1241
e 1178 1242
e 1178 1243
e 1178 1244
e 1178 1245
e 1246 1247
e 1246 1248
e 1246 1249
e 1246 1250
e 1246 1251
e 1246 1252
e 1246 1253
e 1246 1254
e 1246 1255
e 1246 1256
e 1246 1257
e 1246 1258
e 1246 1259
e 1246 1260
e 1246 1261
e 1246 1262
e 1246 1263
e 1246 1264
e 1246 1265
e 1246 1266
e 1246 1267
e 1246 1268
e 1246 1269
e 1246 1270
e 1246 1271
e 1246 1272
e 1246 1273
e 1246 1274
e 1246 1275
e 1246 1276
e 1246 1277
e 1246 1278
e 1279 1280
e 1279 1281
e 1279 1282
e 1279 1283
e 1279 1284
e 1279 1285
e 1279 1286
e 1279 1287
e 1279 1288
e 1279 1289
e 1279 1290
e 1279 1291
e 1279 1292
e 1279 1293
e 1279 1294
e 1279 1295
e 1279 1296
e 1279 1297
e 1279 1298
e 1279 1299
e 1279 1300
e 1279 1301
e 1279 1302
e 1279 1303
e 1279 1304
e 1279 1305
e 1279 1306
e 1279 1307
e 1279 1308
e 1279 1309
e 1279 1310
e 1279 1311
e 1279 1312
e 1279 1313
e 1279 1314
e 1279 1315
e 1279 1316
e 1279 1317
e 1279 1318
e 1279 1319
e 1279 1320
e 1279 1321
e 1279 1322
e 1279 1323
e 1279 1324
e 1279 1325
e 1279 1326
e 1279 1327
e 1279 1328
e 1279 1329
e 1279 1330
e 1279 1331
e 1279 1332
e 1279 1333
e 1279 1334
e 1279 1335
e 1279 1336
e 1279 1337
e 1279 1338
e 1279 1339
e 1279 1340
e 1279 1341
e 1279 1342
e 1279 1343
e 1279 1344
e 1279 1345
e 1279 1346
e 1279 1347
e 1279 1348
e 1279 1349
e 1279 1350
e 1279 1351
e 1279 1352
e 1279 1353
e 1279 1354
e 1279 1355
e 1356 1357
e 1356 1358
e 1356 1359
e 1356 1360
e 1356 1361
e 1356 1362
e 1356 1363
e 1356 1364
e 1356 1365
e 1356 1366
e 1356 1367
e 1356 1368
e 1356 1369
e 1356 1370
e 1356 1371
e 1356 1372
e 1356 1373
e 1356 1374
e 1356 1375
e 1356 1376
e 1356 1377
e 1356 1378
e 1356 1379
e 1356 1380
e 1356 1381
e 1356 1382
e 1356 1383
e 1356 1384
e 1356 1385
e 1356 1386
e 1356 1387
e 1356 1388
e 1356 1389
e 1356 1390
e 1356 1391
e 1356 1392
e 1356 1393
e 1356 1394
e 1356 1395
e 1356 1396
e 1356 1397
e 1356 1398
e 1356 1399
e 1356 1400
e 1356 1401
e 1356 1402
e 1356 1403
e 1356 1404
e 1356 1405
e 1356 1406
e 1356 1407
e 1356 1408
e 1409 1410
e 1409 1411
e 1409 1412
e 1409 1413
e 1409 1414
e 1409 1415
e 1409 1416
e 1409 1417
e 1409 1418
e 1409 1419
e 1409 1420
e 1409 1421
e 1409 1422
e 1409 1423
e 1409 1424
e 1409 1425
e 1409 1426
e 1409 1427
e 1409 1428
e 1409 1429
e 1409 1430
e 1409 1431
e 1409 1432
e 1409 1433
e 1409 1434
e 1409 1435
e 1409 1436
e 1409 1437
e 1409 1438
e 1409 1439
e 1409 1440
e 1409 1441
e 1409 1442
e 1409 1443
e 1409 1444
e 1409 1445
e 1409 1446
e 1409 1447
e 1409 1448
e 1409 1449
e 1409 1450
e 1409 1451
e 1409 1452
e 1409 1453
e 1409 1454
e 1409 1455
e 1409 1456
e 1409 1457
e 1409 1458
e 1409 1459
e 1409 1460
e 1409 1461
e 1409 1462
e 1409 1463
e 1409 1464
e 1409 1465
e 1409 1466
e 1409 1467
e 1409 1468
e 1409 1469
e 1409 1470
e 1409 1471
e 1409 1472
e 1409 1473
e 1409 1474
e 1409 1475
e 1409 1476
e 1477 1478
e 1477 1479
e 1477 1480
e 1477 1481
e 1477 1482
e 1477 1483
e 1477 1484
e 1477 1485
e 1477 1486
e 1477 1487
e 1477 1488
e 1477 1489
e 1477 1490
e 1477 1491
e 1477 1492
e 1477 1493
e 1477 1494
e 1477 1495
e 1477 1496
e 1477 1497
e 1477 1498
e 1477 1499
e 1477 1500
e 1477 1501
e 1477 1502
e 1477 1503
e 1477 1504
e 1477 1505
e 1477 1506
e 1477 1507
e 1477 1508
e 1477 1509
e 1477 1510
e 1477 1511
e 1477 1512
e 1477 1513
e 1477 1514
e 1477 1515
e 1477 1516
e 1477 1517
e 1477 1518
e 1477 1519
e 1477 1520
e 1477 1521
e 1477 1522
e 1477 1523
e 1477 1524
e 1477 1525
e 1477 1526
e 1477 1527
e 1477 1528
e 1477 1529
e 1477 1530
e 1477 1531
e 1477 1532
e 1477 1533
e 1477 1534
e 1477 1535
e 1477 1536
e 1477 1537
e 1477 1538
e 1477 1539
e 1477 1540
e 1477 1541
e 1477 1542
e 1477 1543
e 1477 1544
e 1477 1545
e 1477 1546
e 1477 1547
e 1477 1548
e 1477 1549
e 1477 1550
e 1477 1551
e 1477 1552
e 1477 1553
e 1477 1554
e 1477 1555
e 1477 1556
e 1477 1557
e 1477 1558
e 1477 1559
e 1477 1560
e 1477 1561
e 1477 1562
e 1477 1563
e 1477 1564
e 1565 1566
e 1565 1567
e 1565 1568
e 1565 1569
e 1565 1570
e 1565 1571
e 1565 1572
e 1565 1573
e 1565 1574
e 1565 1575
e 1565 1576
e 1565 1577
e 1565 1578
e 1565 1579
e 1565 1580
e 1565 1581
e 1565 1582
e 1565 1583
e 1565 1584
e 1565 1585
e 1565 1586
e 1565 1587
e 1565 1588
e 1565 1589
e 1565 1590
e 1565 1591
e 1565 1592
e 1565 1593
e 1565 1594
e 1565 1595
e 1565 1596
e 1565 1597
e 1565 1598
e 1565 1599
e 1565 1600
e 1565 1601
e 1565 1602
e 1565 1603
e 1565 1604
e 1565 1605
e 1565 1606
e 1565 1607
e 1565 1608
e 1565 1609
e 1565 1610
e 1565 1611
e 1565 1612
e 1565 1613
e 1565 1614
e 1565 1615
e 1565 1616
e 1565 1617
e 1565 1618
e 1565 1619
e 1565 1620
e 1621 1622
e 1621 1623
e 1621 1624
e 1621 1625
e 1621 1626
e 1621 1627
e 1621 1628
e 1621 1629
e 1621 1630
e 1621 1631
e 1621 1632
e 1621 1633
e 1621 1634
e 1621 1635
e 1621 1636
e 1621 1637
e 1621 1638
e 1621 1639
e 1621 1640
e 1621 1641
e 1621 1642
e 1621 1643
e 1621 1644
e 1621 1645
e 1621 1646
e 1621 1647
e 1621 1648
e 1621 1649
e 1621 1650
e 1621 1651
e 1621 1652
e 1621 1653
e 1654 1655
e 1654 1656
e 1654 1657
e 1654 1658
e 1654 1659
e 1654 1660
e 1654 1661
e 1654 1662
e 1654 1663
e 1654 1664
e 1654 1665
e 1654 1666
e 1654 1667
e 1654 1668
e 1654 1669
e 1654 1670
e 1671 1672
e 1671 1673
e 1671 1674
e 1671 1675
e 1671 1676
e 1671 1677
e 1671 1678
e 1671 1679
e 1671 1680
e 1671 1681
e 1671 1682
e 1671 1683
e 1671 1684
e 1671 1685
e 1671 1686
e 1671 1687
e 1671 1688
e 1671 1689
e 1671 1690
e 1671 1691
e 1671 1692
e 1671 1693
e 1671 1694
e 1671 1695
e 1671 1696
e 1671 1697
e 1671 1698
e 1671 1699
e 1671 1700
e 1671 1701
e 1671 1702
e 1671 1703
e 1671 1704
e 1671 1705
e 1671 1706
e 1671 1707
e 1671 1708
e 1671 1709
e 1671 1710
e 1671 1711
e 1671 1712
e 1671 1713
e 1671 1714
e 1671 1715
e 1671 1716
e 1671 1717
e 1671 1718
e 1671 1719
e 1671 1720
e 1671 1721
e 1671 1722
e 1671 1723
e 1671 1724
e 1671 1725
e 1671 1726
e 1671 1727
e 1671 1728
e 1729 1730
e 1729 1731
e 1729 1732
e 1729 1733
e 1729 1734
e 1729 1735
e 1729 1736
e 1729 1737
e 1729 1738
e 1729 1739
e 1729 1740
e 1729 1741
e 1729 1742
e 1729 1743
e 1729 1744
e 1729 1745
e 1729 1746
e 1729 1747
e 1729 1748
e 1729 1749
e 1729 1750
e 1729 1751
e 1729 1752
e 1729 1753
e 1729 1754
e 1729 1755
e 1729 1756
e 1729 1757
e 1729 1758
e 1729 1759
e 1729 1760
e 1729 1761
e 1729 1762
e 1763 1764
e 1763 1765
e 1763 1766
e 1763 1767
e 1763 1768
e 1763 1769
e 1763 1770
e 1763 1771
e 1763 1772
e 1763 1773
e 1763 1774
e 1763 1775
e 1763 1776
e 1763 1777
e 1763 1778
e 1763 1779
e 1763 1780
e 1763 1781
e 1763 1782
e 1763 1783
e 1763 1784
e 1763 1785
e 1763 1786
e 1763 1787
e 1763 1788
e 1763 1789
e 1763 1790
e 1763 1791
e 1763 1792
e 1763 1793
e 1763 1794
e 1763 1795
e 1763 1796
e 1763 1797
e 1763 1798
e 1763 1799
e 1763 1800
e 1763 1801
e 1763 1802
e 1763 1803
e 1804 1805
e 1804 1806
e 1804 1807
e 1804 1808
e 1804 1809
e 1804 1810
e 1804 1811
e 1804 1812
e 1804 1813
e 1804 1814
e 1804 1815
e 1804 1816
e 1804 1817
e 1804 1818
e 1804 1819
e 1804 1820
e 1804 1821
e 1822 1823
e 1822 1824
e 1822 1825
e 1822 1826
e 1822 1827
e 1822 1828
e 1822 1829
e 1822 1830
e 1822 1831
e 1822 1832
e 1822 1833
e 1822 1834
e 1835 1836
e 1835 1837
e 1835 1838
e 1835 1839
e 1835 1840
e 1835 1841
e 1835 1842
e 1835 1843
e 1835 1844
e 1835 1845
e 1835 1846
e 1835 1847
e 1835 1848
e 1835 1849
e 1835 1850
e 1835 1851
e 1835 1852
e 1835 1853
e 1835 1854
e 1835 1855
e 1835 1856
e 1835 1857
e 1835 1858
e 1835 1859
e 1835 1860
e 1835 1861
e 1835 1862
e 1835 1863
e 1835 1864
e 1835 1865
e 1835 1866
e 1835 1867
e 1835 1868
e 1835 1869
e 1835 1870
e 1835 1871
e 1835 1872
e 1835 1873
e 1835 1874
e 1835 1875
e 1835 1876
e 1835 1877
e 1835 1878
e 1835 1879
e 1835 1880
e 1835 1881
e 1835 1882
e 1835 1883
e 1835 1884
e 1835 1885
e 1835 1886
e 1835 1887
e 1835 1888
e 1835 1889
e 1835 1890
e 1835 1891
e 1835 1892
e 1835 1893
e 1894 1895
e 1894 1896
e 1894 1897
e 1894 1898
e 1894 1899
e 1894 1900
e 1894 1901
e 1894 1902
e 1894 1903
e 1894 1904
e 1894 1905
e 1894 1906
e 1894 1907
e 1894 1908
e 1894 1909
e 1894 1910
e 1894 1911
e 1894 1912
e 1894 1913
e 1894 1914
e 1894 1915
e 1894 1916
e 1894 1917
e 1894 1918
e 1894 1919
e 1894 1920
e 1894 1921
e 1894 1922
e 1894 1923
e 1894 1924
e 1894 1925
e 1894 1926
e 1894 1927
e 1894 1928
e 1894 1929
e 1894 1930
e 1894 1931
e 1894 1932
e 1894 1933
e 1894 1934
e 1894 1935
e 1894 1936
e 1894 1937
e 1894 1938
e 1894 1939
e 1894 1940
e 1894 1941
e 1894 1942
e 1894 1943
e 1894 1944
e 1894 1945
e 1894 1946
e 1894 1947
e 1894 1948
e 1949 1950
e 1949 1951
e 1949 1952
e 1949 1953
e 1949 1954
e 1949 1955
e 1949 1956
e 1949 1957
e 1949 1958
e 1949 1959
e 1949 1960
e 1949 1961
e 1949 1962
e 1949 1963
e 1949 1964
e 1949 1965
e 1949 1966
e 1949 1967
e 1949 1968
e 1949 1969
e 1949 1970
e 1949 1971
e 1949 1972
e 1949 1973
e 1949 1974
e 1949 1975
e 1949 1976
e 1949 1977
e 1949 1978
e 1949 1979
e 1949 1980
e 1949 1981
e 1949 1982
e 1949 1983
e 1949 1984
e 1949 1985
e 1949 1986
e 1949 1987
e 1949 1988
e 1949 1989
e 1949 1990
e 1949 1991
e 1949 1992
e 1949 1993
e 1949 1994
e 1949 1995
e 1949 1996
e 1949 1997
e 1949 1998
e 1949 1999
e 1949 2000
e 1949 2001
e 1949 2002
e 1949 2003
e 1949 2004
e 1949 2005
e 1949 2006
e 1949 2007
e 1949 2008
e 2009 2010
e 2009 2011
e 2009 2012
e 2009 2013
e 2009 2014
e 2009 2015
e 2009 2016
e 2009 2017
e 2009 2018
e 2009 2019
e 2009 2020
e 2009 2021
e 2009 2022
e 2009 2023
e 2009 2024
e 2009 2025
e 2009 2026
e 2009 2027
e 2009 2028
e 2009 2029
e 2009 2030
e 2009 2031
e 2009 2032
e 2009 2033
e 2009 2034
e 2009 2035
e 2009 2036
e 2009 2037
e 2009 2038
e 2009 2039
e 2009 2040
e 2009 2041
e 2009 2042
e 2009 2043
e 2009 2044
e 2009 2045
e 2009 2046
e 2009 2047
e 2009 2048
e 2009 2049
e 2009 2050
e 2009 2051
e 2009 2052
e 2009 2053
e 2009 2054
e 2009 2055
e 2009 2056
e 2009 2057
e 2009 2058
e 2009 2059
e 2009 2060
e 2009 2061
e 2009 2062
e 2063 2064
e 2063 2065
e 2063 2066
e 2063 2067
e 2063 2068
e 2063 2069
e 2063 2070
e 2063 2071
e 2063 2072
e 2063 2073
e 2063 2074
e 2063 2075
e 2063 2076
e 2063 2077
e 2063 2078
e 2063 2079
e 2063 2080
e 2063 2081
e 2063 2082
e 2063 2083
e 2063 2084
e 2063 2085
e 2063 2086
e 2063 2087
e 2063 2088
e 2063 2089
e 2063 2090
e 2063 2091
e 2063 2092
e 2063 2093
e 2063 2094
e 2063 2095
e 2063 2096
e 2063 2097
e 2063 2098
e 2063 2099
e 2063 2100
e 2063 2101
e 2063 2102
e 2063 2103
e 2063 2104
e 2063 2105
e 2063 2106
e 2063 2107
e 2063 2108
e 2063 2109
e 2063 2110
e 2063 2111
e 2063 2112
e 2063 2113
e 2063 2114
e 2063 2115
e 2063 2116
e 2063 2117
e 2063 2118
e 2063 2119
e 2063 2120
e 2063 2121
e 2063 2122
e 2063 2123
e 2063 2124
e 2063 2125
e 2063 2126
e 2063 2127
e 2063 2128
e 2063 2129
e 2063 2130
e 2063 2131
e 2063 2132
e 2063 2133
e 2063 2134
e 2063 2135
e 2136 2137
e 2136 2138
e 2136 2139
e 2136 2140
e 2136 2141
e 2136 2142
e 2136 2143
e 2136 2144
e 2136 2145
e 2136 2146
e 2147 2148
e 2147 2149
e 2147 2150
e 2147 2151
e 2147 2152
e 2147 2153
e 2147 2154
e 2147 2155
e 2147 2156
e 2147 2157
e 2147 2158
e 2147 2159
e 2147 2160
e 2147 2161
e 2147 2162
e 2147 2163
e 2147 2164
e 2147 2165
e 2147 2166
e 2147 2167
e 2147 2168
e 2147 2169
e 2147 2170
e 2147 2171
e 2172 2173
e 2172 2174
e 2172 2175
e 2172 2176
e 2172 2177
e 2172 2178
e 2172 2179
e 2172 2180
e 2172 2181
e 2172 2182
e 2172 2183
e 2172 2184
e 2172 2185
e 2172 2186
e 2172 2187
e 2172 2188
e 2172 2189
e 2172 2190
e 2172 2191
e 2172 2192
e 2172 2193
e 2172 2194
e 2172 2195
e 2172 2196
e 2172 2197
e 2172 2198
e 2172 2199
e 2172 2200
e 2172 2201
e 2172 2202
e 2172 2203
e 2172 2204
e 2172 2205
e 2172 2206
e 2172 2207
e 2172 2208
e 2172 2209
e 2172 2210
e 2211 2212
e 2211 2213
e 2211 2214
e 2211 2215
e 2211 2216
e 2211 2217
e 2211 2218
e 2211 2219
e 2211 2220
e 2211 2221
e 2211 2222
e 2211 2223
e 2211 2224
e 2211 2225
e 2211 2226
e 2211 2227
e 2211 2228
e 2211 2229
e 2211 2230
e 2211 2231
e 2211 2232
e 2211 2233
e 2211 2234
e 2211 2235
e 2211 2236
e 2211 2237
e 2211 2238
e 2211 2239
e 2211 2240
e 2211 2241
e 2211 2242
e 2211 2243
e 2244 2245
e 2244 2246
e 2244 2247
e 2244 2248
e 2244 2249
e 2244 2250
e 2244 2251
e 2244 2252
e 2244 2253
e 2244 2254
e 2244 2255
e 2244 2256
e 2244 2257
e 2244 2258
e 2244 2259
e 2244 2260
e 2244 2261
e 2244 2262
e 2244 2263
e 2244 2264
e 2244 2265
e 2244 2266
e 2244 2267
e 2244 2268
e 2244 2269
e 2244 2270
e 2244 2271
e 2244 2272
e 2244 2273
e 2244 2274
e 2244 2275
e 2244 2276
e 2244 2277
e 2278 2279
e 2278 2280
e 2278 2281
e 2278 2282
e 2278 2283
e 2278 2284
e 2278 2285
e 2278 2286
e 2278 2287
e 2278 2288
e 2278 2289
e 2278 2290
e 2278 2291
e 2278 2292
e 2278 2293
e 2278 2294
e 2278 2295
e 2278 2296
e 2278 2297
e 2278 2298
e 2278 2299
e 2278 2300
e 2278 2301
e 2278 2302
e 2278 2303
e 2278 2304
e 2278 2305
e 2278 2306
e 2278 2307
e 2278 2308
e 2278 2309
e 2278 2310
e 2278 2311
e 2278 2312
e 2278 2313
e 2278 2314
e 2278 2315
e 2278 2316
e 2278 2317
e 2278 2318
e 2278 2319
e 2278 2320
e 2278 2321
e 2278 2322
e 2278 2323
e 2278 2324
e 2278 2325
e 2278 2326
e 2278 2327
e 2278 2328
e 2278 2329
e 2278 2330
e 2278 2331
e 2278 2332
e 2278 2333
e 2278 2334
e 2278 2335
e 2278 2336
e 2337 2338
e 2337 2339
e 2337 2340
e 2337 2341
e 2337 2342
e 2337 2343
e 2337 2344
e 2337 2345
e 2337 2346
e 2337 2347
e 2337 2348
e 2337 2349
e 2337 2350
e 2337 2351
e 2337 2352
e 2337 2353
e 2337 2354
e 2337 2355
e 2337 2356
e 2337 2357
e 2337 2358
e 2337 2359
e 2337 2360
e 2337 2361
e 2337 2362
e 2337 2363
e 2337 2364
e 2337 2365
e 2337 2366
e 2337 2367
e 2337 2368
e 2337 2369
e 2337 2370
e 2337 2371
e 2337 2372
e 2337 2373
e 2337 2374
e 2337 2375
e 2337 2376
e 2337 2377
e 2337 2378
e 2337 2379
e 2337 2380
e 2337 2381
e 2337 2382
e 2337 2383
e 2337 2384
e 2337 2385
e 2337 2386
e 2337 2387
e 2337 2388
e 2337 2389
e 2337 2390
e 2337 2391
e 2337 2392
e 2337 2393
e 2337 2394
e 2337 2395
e 2337 2396
e 2337 2397
e 2337 2398
e 2337 2399
e 2337 2400
e 2337 2401
e 2337 2402
e 2337 2403
e 2337 2404
e 2337 2405
e 2337 2406
e 2337 2407
e 2337 2408
e 2337 2409
e 2337 2410
e 2337 2411
e 2337 2412
e 2337 2413
e 2337 2414
e 2337 2415
e 2337 2416
e 2337 2417
e 2337 2418
e 2337 2419
e 2337 2420
e 2337 2421
e 2337 2422
e 2423 2424
e 2423 2425
e 2423 2426
e 2423 2427
e 2423 2428
e 2423 2429
e 2423 2430
e 2423 2431
e 2423 2432
e 2423 2433
e 2423 2434
e 2423 2435
e 2423 2436
e 2423 2437
e 2423 2438
e 2423 2439
e 2440 2441
e 2440 2442
e 2440 2443
e 2440 2444
e 2440 2445
e 2440 2446
e 2440 2447
e 2440 2448
e 2440 2449
e 2440 2450
e 2440 2451
e 2440 2452
e 2440 2453
e 2440 2454
e 2440 2455
e 2440 2456
e 2440 2457
e 2440 2458
e 2440 2459
e 2440 2460
e 2440 2461
e 2440 2462
e 2440 2463
e 2440 2464
e 2440 2465
e 2440 2466
e 2440 2467
e 2440 2468
e 2440 2469
e 2440 2470
e 2440 2471
e 2440 2472
e 2440 2473
e 2440 2474
e 2440 2475
e 2440 2476
e 2440 2477
e 2440 2478
e 2440 2479
e 2440 2480
e 2440 2481
e 2440 2482
e 2440 2483
e 2440 2484
e 2440 2485
e 2440 2486
e 2440 2487
e 2440 2488
e 2440 2489
e 2440 2490
e 2440 2491
e 2440 2492
e 2440 2493
e 2440 2494
e 2440 2495
e 2440 2496
e 2440 2497
e 2440 2498
e 2440 2499
e 2440 2500
e 2440 2501
e 2440 2502
e 2440 2503
e 2440 2504
e 2440 2505
e 2440 2506
e 2440 2507
e 2440 2508
e 2440 2509
e 2440 2510
e 2440 2511
e 2440 2512
e 2440 2513
e 2440 2514
e 2440 2515
e 2440 2516
e 2440 2517
e 2440 2518
e 2440 2519
e 2440 2520
e 2440 2521
e 2440 2522
e 2440 2523
e 2440 2524
e 2440 2525
e 2440 2526
e 2440 2527
e 2440 2528
e 2440 2529
e 2530 2531
e 2530 2532
e 2530 2533
e 2530 2534
e 2530 2535
e 2530 2536
e 2530 2537
e 2530 2538
e 2530 2539
e 2530 2540
e 2530 2541
e 2542 2543
e 2542 2544
e 2542 2545
e 2542 2546
e 2542 2547
e 2542 2548
e 2542 2549
e 2542 2550
e 2542 2551
e 2542 2552
e 2542 2553
e 2542 2554
e 2542 2555
e 2542 2556
e 2542 2557
e 2542 2558
e 2542 2559
e 2542 2560
e 2542 2561
e 2542 2562
e 2542 2563
e 2542 2564
e 2542 2565
e 2542 2566
e 2542 2567
e 2542 2568
e 2542 2569
e 2542 2570
e 2542 2571
e 2542 2572
e 2542 2573
e 2542 2574
e 2542 2575
e 2542 2576
e 2542 2577
e 2542 2578
e 2542 2579
e 2542 2580
e 2542 2581
e 2542 2582
e 2542 2583
e 2542 2584
e 2542 2585
e 2542 2586
e 2542 2587
e 2542 2588
e 2542 2589
e 2590 2591
e 2590 2592
e 2590 2593
e 2590 2594
e 2590 2595
e 2590 2596
e 2590 2597
e 2590 2598
e 2590 2599
e 2590 2600
e 2590 2601
e 2590 2602
e 2590 2603
e 2590 2604
e 2590 2605
e 2590 2606
e 2590 2607
e 2590 2608
e 2590 2609
e 2590 2610
e 2590 2611
e 2590 2612
e 2590 2613
e 2590 2614
e 2590 2615
e 2590 2616
e 2590 2617
e 2590 2618
e 2590 2619
e 2590 2620
e 2590 2621
e 2590 2622
e 2590 2623
e 2590 2624
e 2590 2625
e 2590 2626
e 2590 2627
e 2590 2628
e 2590 2629
e 2590 2630
e 2590 2631
e 2632 2633
e 2632 2634
e 2632 2635
e 2632 2636
e 2632 2637
e 2632 2638
e 2632 2639
e 2632 2640
e 2632 2641
e 2632 2642
e 2632 2643
e 2632 2644
e 2632 2645
e 2632 2646
e 2632 2647
e 2632 2648
e 2632 2649
e 2632 2650
e 2632 2651
e 2632 2652
e 2632 2653
e 2632 2654
e 2632 2655
e 2632 2656
e 2632 2657
e 2632 2658
e 2632 2659
e 2632 2660
e 2632 2661
e 2632 2662
e 2632 2663
e 2632 2664
e 2632 2665
e 2632 2666
e 2632 2667
e 2632 2668
e 2632 2669
e 2632 2670
e 2632 2671
e 2672 2673
e 2672 2674
e 2672 2675
e 2672 2676
e 2672 2677
e 2672 2678
e 2672 2679
e 2672 2680
e 2672 2681
e 2672 2682
e 2672 2683
e 2672 2684
e 2672 2685
e 2672 2686
e 2672 2687
e 2672 2688
e 2672 2689
e 2672 2690
e 2672 2691
e 2672 2692
e 2672 2693
e 2672 2694
e 2672 2695
e 2672 2696
e 2672 2697
e 2672 2698
e 2672 2699
e 2672 2700
e 2672 2701
e 2672 2702
e 2672 2703
e 2672 2704
e 2672 2705
e 2672 2706
e 2672 2707
e 2672 2708
e 2672 2709
e 2672 2710
e 2672 2711
e 2672 2712
e 2672 2713
e 2672 2714
e 2672 2715
e 2672 2716
e 2672 2717
e 2718 2719
e 2718 2720
e 2718 2721
e 2718 2722
e 2718 2723
e 2718 2724
e 2718 2725
e 2718 2726
e 2718 2727
e 2718 2728
e 2718 2729
e 2718 2730
e 2718 2731
e 2718 2732
e 2718 2733
e 2718 2734
e 2718 2735
e 2718 2736
e 2718 2737
e 2718 2738
e 2718 2739
e 2718 2740
e 2718 2741
e 2718 2742
e 2718 2743
e 2718 2744
e 2718 2745
e 2718 2746
e 2718 2747
e 2718 2748
e 2718 2749
e 2718 2750
e 2718 2751
e 2718 2752
e 2718 2753
e 2718 2754
e 2718 2755
e 2718 2756
e 2718 2757
e 2718 2758
e 2718 2759
e 2718 2760
e 2718 2761
e 2718 2762
e 2718 2763
e 2718 2764
e 2718 2765
e 2718 2766
e 2718 2767
e 2718 2768
e 2718 2769
e 2718 2770
e 2718 2771
e 2718 2772
e 2718 2773
e 2774 2775
e 2774 2776
e 2774 2777
e 2774 2778
e 2774 2779
e 2774 2780
e 2774 2781
e 2774 2782
e 2774 2783
e 2774 2784
e 2774 2785
e 2774 2786
e 2774 2787
e 2774 2788
e 2774 2789
e 2774 2790
e 2774 2791
e 2774 2792
e 2774 2793
e 2774 2794
e 2774 2795
e 2774 2796
e 2774 2797
e 2774 2798
e 2774 2799
e 2774 2800
e 2774 2801
e 2774 2802
e 2774 2803
e 2774 2804
e 2774 2805
e 2774 2806
e 2774 2807
e 2774 2808
e 2774 2809
e 2774 2810
e 2774 2811
e 2774 2812
e 2774 2813
e 2774 2814
e 2774 2815
e 2774 2816
e 2774 2817
e 2774 2818
e 2774 2819
e 2774 2820
e 2774 2821
e 2774 2822
e 2774 2823
e 2774 2824
e 2774 2825
e 2774 2826
e 2774 2827
e 2774 2828
e 2774 2829
e 2774 2830
e 2774 2831
e 2774 2832
e 2774 2833
e 2774 2834
e 2774 2835
e 2774 2836
e 2774 2837
e 2774 2838
e 2774 2839
e 2774 2840
e 2774 2841
e 2774 2842
e 2774 2843
e 2774 2844
e 2774 2845
e 2774 2846
e 2774 2847
e 2774 2848
e 2774 2849
e 2774 2850
e 2774 2851
e 2774 2852
e 2774 2853
e 2774 2854
e 2855 2856
e 2855 2857
e 2855 2858
e 2855 2859
e 2855 2860
e 2855 2861
e 2855 2862
e 2855 2863
e 2855 2864
e 2855 2865
e 2855 2866
e 2855 2867
e 2855 2868
e 2855 2869
e 2855 2870
e 2855 2871
e 2855 2872
e 2855 2873
e 2855 2874
e 2855 2875
e 2855 2876
e 2855 2877
e 2855 2878
e 2855 2879
e 2855 2880
e 2855 2881
e 2855 2882
e 2855 2883
e 2855 2884
e 2855 2885
e 2855 2886
e 2855 2887
e 2855 2888
e 2855 2889
e 2855 2890
e 2855 2891
e 2855 2892
e 2855 2893
e 2855 2894
e 2855 2895
e 2855 2896
e 2855 2897
e 2855 2898
e 2855 2899
e 2855 2900
e 2855 2901
e 2855 2902
e 2855 2903
e 2855 2904
e 2855 2905
e 2855 2906
e 2855 2907
